results/x-10M/X-n162-k11.vrp_seed-2.out
14138	9796
