results/x-10M/X-n162-k11.vrp_seed-2.vrp.sol
Route #1: 15 139 126 138 133 107 122 84 160 85 121 147 159 135 72
Route #2: 8 76 41 61 46 69 65 42 51 3 33 75 44 7 34
Route #3: 155 92 125 93 132 87 4 101 151 146 39 137 108 158 91 136
Route #4: 161 77 97 117 27 9 21 60 55 1 14 89 149 17 127
Route #5: 59 156 115 141 119 144 105 10 29
Route #6: 54 78 20 67 62 114 95 129 96 88 106 31 140 154 111 80
Route #7: 25 47 98 83 104 63 113 70 12 64 18 19 22 79
Route #8: 143 153 110 128 124 134 148 109 2 82 118 30 157 112 40 103
Route #9: 50 45 152 28 26 48 11 73 38 58 68 145 90 150
Route #10: 23 24 49 6 13 71 37 131 57 32 16 5 120 81 74
Route #11: 53 86 130 99 35 36 94 100 66 56 123 43 142 102 116 52
Cost 14138.000000